(set-option :timeout 5000)
(declare-fun tvw_arr (Int) Int)
(declare-fun tvw_l () Int)
(declare-fun tvw_m () Int)
(declare-fun tvw_r () Int)
(assert (<  0   (+  (+  (-  tvw_m   tvw_l )   1 )   0 ) ) )
(assert (not  (<  1   (+  (+  (-  tvw_m   tvw_l )   1 )   0 ) ) ) )
(assert (<  0   (+  (-  tvw_r   tvw_m )   0 ) ) )
(assert (not  (<  1   (+  (-  tvw_r   tvw_m )   0 ) ) ) )
(assert (and  (<  0   (+  (+  (-  tvw_m   tvw_l )   1 )   0 ) )   (<  0   (+  (-  tvw_r   tvw_m )   0 ) ) ) )
(assert (<=  (tvw_L (+  (+  (+  (+  (+  (+  0   0 )   0 )   0 )   0 )   0 )   0 ) )   (tvw_R (+  (+  (+  (+  (+  (+  0   0 )   0 )   0 )   0 )   0 )   0 ) ) ) )
(assert (not  (and  (<  1   (+  (+  (-  tvw_m   tvw_l )   1 )   0 ) )   (<  0   (+  (-  tvw_r   tvw_m )   0 ) ) ) ) )
(assert (<  1   (+  (+  (-  tvw_m   tvw_l )   1 )   0 ) ) )
(assert (not  (<  2   (+  (+  (-  tvw_m   tvw_l )   1 )   0 ) ) ) )
(assert (<  0   (+  (-  tvw_r   tvw_m )   0 ) ) )
(assert (not  (<  1   (+  (-  tvw_r   tvw_m )   0 ) ) ) )
(check-sat)(get-model)
